c FILE /home/rafael/Documents/HappySet/MIHS/inputs/happygen/output/graph_d_regular_k2_p0.2_v100_20241127_083955.txt
c SOURCE This is a d-regular graph formed for the happy graph colouring problem.
c DESCRIPTION It was generated using the problem generator of Rhyd Lewis
c
c GRAPH STATS
c Seed                             = -1487917144
c Number of Nodes                  = 100
c Number of colours k              = 2
c Number of pre-assignments        = 20
c Degree of all vertices           = 6
c Density                          = 0.0606061
c 
c The degrees of nodes 1 to 100, respectively, are as follows 
c [6, 6, 6, 6, 6, 6, 6, 6, 6, 6, 6, 6, 6, 6, 6, 6, 6, 6, 6, 6, 6, 6, 6, 6, 6, 6, 
c  6, 6, 6, 6, 6, 6, 6, 6, 6, 6, 6, 6, 6, 6, 6, 6, 6, 6, 6, 6, 6, 6, 6, 6, 6, 
c  6, 6, 6, 6, 6, 6, 6, 6, 6, 6, 6, 6, 6, 6, 6, 6, 6, 6, 6, 6, 6, 6, 6, 6, 6, 
c  6, 6, 6, 6, 6, 6, 6, 6, 6, 6, 6, 6, 6, 6, 6, 6, 6, 6, 6, 6, 6, 6, 6, 6] 
c  
p edge 100 300 2
e 1 2
e 1 9
e 1 16
e 1 31
e 1 77
e 1 79
e 2 4
e 2 57
e 2 58
e 2 63
e 2 95
e 3 5
e 3 12
e 3 37
e 3 53
e 3 71
e 3 82
e 4 50
e 4 55
e 4 64
e 4 83
e 4 84
e 5 20
e 5 46
e 5 72
e 5 87
e 5 91
e 6 8
e 6 46
e 6 53
e 6 78
e 6 83
e 6 100
e 7 14
e 7 19
e 7 31
e 7 36
e 7 43
e 7 50
e 8 14
e 8 20
e 8 22
e 8 64
e 8 92
e 9 18
e 9 32
e 9 60
e 9 70
e 9 91
e 10 27
e 10 61
e 10 85
e 10 93
e 10 94
e 10 96
e 11 20
e 11 36
e 11 50
e 11 57
e 11 71
e 11 97
e 12 13
e 12 26
e 12 35
e 12 41
e 12 53
e 13 27
e 13 37
e 13 48
e 13 52
e 13 66
e 14 15
e 14 59
e 14 77
e 14 90
e 15 27
e 15 28
e 15 47
e 15 94
e 15 95
e 16 28
e 16 56
e 16 58
e 16 76
e 16 82
e 17 18
e 17 38
e 17 64
e 17 70
e 17 89
e 17 97
e 18 24
e 18 55
e 18 83
e 18 88
e 19 24
e 19 34
e 19 41
e 19 70
e 19 75
e 20 40
e 20 72
e 20 96
e 21 31
e 21 59
e 21 77
e 21 83
e 21 84
e 21 88
e 22 42
e 22 58
e 22 67
e 22 75
e 22 82
e 23 34
e 23 40
e 23 47
e 23 57
e 23 66
e 23 79
e 24 30
e 24 62
e 24 80
e 24 86
e 25 33
e 25 68
e 25 70
e 25 73
e 25 87
e 25 89
e 26 50
e 26 54
e 26 59
e 26 80
e 26 100
e 27 42
e 27 62
e 27 65
e 28 41
e 28 49
e 28 93
e 28 94
e 29 30
e 29 39
e 29 44
e 29 46
e 29 74
e 29 86
e 30 36
e 30 48
e 30 74
e 30 87
e 31 63
e 31 84
e 31 98
e 32 33
e 32 41
e 32 68
e 32 77
e 32 79
e 33 39
e 33 43
e 33 63
e 33 85
e 34 71
e 34 79
e 34 86
e 34 94
e 35 36
e 35 44
e 35 56
e 35 85
e 35 94
e 36 45
e 36 64
e 37 51
e 37 60
e 37 71
e 37 87
e 38 49
e 38 62
e 38 65
e 38 75
e 38 89
e 39 43
e 39 44
e 39 45
e 39 49
e 40 44
e 40 45
e 40 46
e 40 60
e 41 51
e 41 66
e 42 48
e 42 71
e 42 93
e 42 97
e 43 54
e 43 56
e 43 81
e 44 92
e 44 99
e 45 51
e 45 52
e 45 69
e 46 48
e 46 49
e 47 52
e 47 54
e 47 59
e 47 84
e 48 80
e 48 86
e 49 55
e 49 69
e 50 51
e 50 80
e 51 90
e 51 91
e 52 67
e 52 73
e 52 96
e 53 64
e 53 68
e 53 86
e 54 60
e 54 70
e 54 77
e 55 74
e 55 95
e 55 98
e 56 58
e 56 78
e 56 93
e 57 59
e 57 65
e 57 84
e 58 90
e 58 91
e 59 71
e 60 64
e 60 73
e 61 78
e 61 83
e 61 91
e 61 97
e 61 98
e 62 73
e 62 79
e 62 81
e 63 70
e 63 90
e 63 93
e 65 68
e 65 89
e 65 99
e 66 67
e 66 88
e 66 98
e 67 85
e 67 89
e 67 96
e 68 72
e 68 76
e 69 72
e 69 76
e 69 87
e 69 88
e 72 85
e 72 90
e 73 81
e 73 86
e 74 87
e 74 93
e 74 100
e 75 77
e 75 83
e 75 85
e 76 78
e 76 82
e 76 99
e 78 80
e 78 92
e 79 99
e 80 95
e 81 95
e 81 99
e 81 100
e 82 94
e 82 99
e 84 92
e 88 92
e 88 95
e 89 97
e 90 98
e 91 92
e 96 97
e 96 100
e 98 100
n 3 2
n 4 2
n 7 2
n 18 2
n 22 1
n 25 2
n 38 1
n 40 2
n 43 2
n 46 2
n 51 2
n 52 1
n 53 2
n 59 1
n 67 1
n 77 1
n 78 1
n 81 2
n 90 2
n 100 2
